<?xml version = "1.0" standalone="yes"?>
<!-- This file has been generated by DOcplex version 2.23.222  -->
<CPLEXSolution version="1.0">
 <header
   problemName="CVRP"
   objectiveValue="12058.7"
  />
 <variables>
  <variable name="x_0_2" index="1" value="1.00000"/>
  <variable name="x_0_3" index="2" value="1.00000"/>
  <variable name="x_0_4" index="3" value="1.00000"/>
  <variable name="x_0_7" index="6" value="1.00000"/>
  <variable name="x_0_8" index="7" value="1.00000"/>
  <variable name="x_0_9" index="8" value="1.00000"/>
  <variable name="x_0_10" index="9" value="1.00000"/>
  <variable name="x_0_13" index="12" value="1.00000"/>
  <variable name="x_0_14" index="13" value="1.00000"/>
  <variable name="x_0_17" index="16" value="1.00000"/>
  <variable name="x_0_18" index="17" value="1.00000"/>
  <variable name="x_0_20" index="19" value="1.00000"/>
  <variable name="x_1_0" index="26" value="1.00000"/>
  <variable name="x_2_5" index="56" value="1.00000"/>
  <variable name="x_3_0" index="78" value="1.00000"/>
  <variable name="x_4_0" index="104" value="1.00000"/>
  <variable name="x_5_15" index="144" value="1.00000"/>
  <variable name="x_6_0" index="156" value="1.00000"/>
  <variable name="x_7_0" index="182" value="1.00000"/>
  <variable name="x_8_0" index="208" value="1.00000"/>
  <variable name="x_9_26" index="259" value="1.00000"/>
  <variable name="x_10_22" index="281" value="1.00000"/>
  <variable name="x_11_0" index="286" value="1.00000"/>
  <variable name="x_12_0" index="312" value="1.00000"/>
  <variable name="x_13_0" index="338" value="1.00000"/>
  <variable name="x_14_19" index="382" value="1.00000"/>
  <variable name="x_15_0" index="390" value="1.00000"/>
  <variable name="x_16_1" index="417" value="1.00000"/>
  <variable name="x_17_6" index="448" value="1.00000"/>
  <variable name="x_18_12" index="480" value="1.00000"/>
  <variable name="x_19_25" index="518" value="1.00000"/>
  <variable name="x_20_16" index="536" value="1.00000"/>
  <variable name="x_21_0" index="546" value="1.00000"/>
  <variable name="x_22_11" index="583" value="1.00000"/>
  <variable name="x_23_24" index="621" value="1.00000"/>
  <variable name="x_24_21" index="645" value="1.00000"/>
  <variable name="x_25_23" index="673" value="1.00000"/>
  <variable name="x_26_0" index="676" value="1.00000"/>
  <variable name="u_1" index="702" value="43.00000"/>
  <variable name="u_2" index="703" value="14.00000"/>
  <variable name="u_3" index="704" value="39.00000"/>
  <variable name="u_4" index="705" value="34.00000"/>
  <variable name="u_5" index="706" value="27.00000"/>
  <variable name="u_6" index="707" value="43.00000"/>
  <variable name="u_7" index="708" value="43.00000"/>
  <variable name="u_8" index="709" value="14.00000"/>
  <variable name="u_9" index="710" value="15.00000"/>
  <variable name="u_10" index="711" value="14.00000"/>
  <variable name="u_11" index="712" value="38.00000"/>
  <variable name="u_12" index="713" value="43.00000"/>
  <variable name="u_13" index="714" value="36.00000"/>
  <variable name="u_14" index="715" value="1.00000"/>
  <variable name="u_15" index="716" value="43.00000"/>
  <variable name="u_16" index="717" value="35.00000"/>
  <variable name="u_17" index="718" value="17.00000"/>
  <variable name="u_18" index="719" value="36.00000"/>
  <variable name="u_19" index="720" value="18.00000"/>
  <variable name="u_20" index="721" value="6.00000"/>
  <variable name="u_21" index="722" value="42.00000"/>
  <variable name="u_22" index="723" value="24.00000"/>
  <variable name="u_23" index="724" value="29.00000"/>
  <variable name="u_24" index="725" value="38.00000"/>
  <variable name="u_25" index="726" value="24.00000"/>
  <variable name="u_26" index="727" value="36.00000"/>
 </variables>
</CPLEXSolution>
